0 29
0 156
0 175
0 216
0 226
0 241
0 248
0 280
0 310
0 339
0 340
0 345
0 363
0 372
0 518
0 572
0 586
0 641
0 715
0 747
0 898
0 1627
0 1628
0 1629
1 86
1 105
1 111
1 188
1 208
1 259
1 273
1 276
1 338
1 352
1 427
1 447
1 458
1 459
1 503
1 511
1 586
1 639
1 656
1 735
1 802
1 808
1 1001
1 1064
1 1110
1 1111
1 1112
1 1113
1 1114
1 1115
1 1116
1 1117
1 1118
1 1119
1 1120
1 1121
1 1122
1 1123
2 4
2 6
2 26
2 32
2 49
2 103
2 180
2 186
2 194
2 195
2 315
2 328
2 344
2 367
2 422
2 423
2 424
2 460
2 461
2 492
2 493
2 557
2 558
2 627
2 628
2 629
2 764
2 765
2 766
2 767
2 768
2 1020
2 1922
2 1923
2 1924
3 42
3 147
3 191
3 208
3 215
3 238
3 241
3 248
3 253
3 268
3 272
3 273
3 274
3 284
3 288
3 289
3 292
3 294
3 299
3 300
3 301
3 303
3 304
3 305
3 307
3 318
3 323
3 326
3 331
3 335
3 352
3 354
3 356
3 360
3 376
3 397
3 434
3 435
3 439
3 451
3 452
3 459
3 469
3 472
3 475
3 486
3 505
3 513
3 523
3 524
3 527
3 532
3 537
3 563
3 567
3 577
3 578
3 581
3 587
3 592
3 601
3 633
3 634
3 644
3 659
3 685
3 686
3 717
3 718
3 727
3 730
3 733
3 787
3 789
3 790
3 851
3 852
3 853
3 854
3 855
3 856
3 857
3 858
3 859
3 869
3 870
3 873
3 874
3 907
3 965
3 985
3 1034
3 1044
3 1045
3 1476
3 1477
3 1478
3 1479
3 1480
3 1481
3 1482
3 1483
3 1484
3 1485
3 1486
3 1487
3 1488
3 1489
3 1490
3 1491
3 1492
3 1493
3 1494
3 1495
3 1496
3 1497
3 1498
3 1499
3 1500
3 1501
3 1502
3 1503
3 1504
3 1505
3 1506
3 1507
3 1508
3 1509
3 1510
3 1511
3 1512
3 1513
3 1514
3 1515
3 1516
3 1517
3 1518
3 1519
3 1520
3 1521
3 1522
3 1523
3 1524
3 1525
3 1526
3 1527
3 1528
3 1529
3 1530
3 1531
3 1532
3 1533
3 1534
3 1535
3 1536
3 1537
3 1538
3 1539
3 1540
3 1541
4 6
4 82
4 103
4 180
4 186
4 195
4 315
4 328
4 344
4 367
4 424
4 427
4 447
4 456
4 460
4 461
4 477
4 492
4 558
4 565
4 603
4 624
4 627
4 628
4 629
4 728
4 1543
4 1544
5 161
5 283
5 396
5 445
5 565
5 617
5 618
6 26
6 32
6 49
6 79
6 82
6 94
6 103
6 180
6 186
6 194
6 195
6 280
6 315
6 316
6 322
6 328
6 333
6 367
6 369
6 391
6 400
6 405
6 422
6 423
6 424
6 447
6 459
6 461
6 463
6 477
6 492
6 517
6 527
6 528
6 548
6 557
6 558
6 652
6 682
6 683
6 689
6 694
6 764
6 766
6 847
6 848
6 955
6 983
6 1466
6 1467
6 1468
6 1469
6 1470
6 1471
6 1472
7 63
7 78
7 113
7 145
7 206
7 224
7 238
7 274
7 275
7 280
7 281
7 282
7 285
7 294
7 301
7 302
7 304
7 305
7 331
7 354
7 364
7 368
7 370
7 373
7 394
7 398
7 406
7 416
7 427
7 428
7 432
7 472
7 473
7 505
7 506
7 521
7 523
7 535
7 548
7 566
7 578
7 596
7 619
7 646
7 662
7 669
7 671
7 685
7 749
7 750
7 837
7 928
7 943
7 970
7 971
7 995
7 1010
7 1012
7 1013
7 1228
7 1229
7 1230
7 1231
7 1232
7 1233
7 1234
7 1235
7 1236
7 1237
7 1238
7 1239
7 1240
7 1241
7 1242
7 1243
7 1244
7 1245
7 1246
7 1247
7 1248
7 1249
7 1250
7 1251
7 1252
7 1253
7 1254
7 1255
7 1256
7 1257
7 1258
7 1259
7 1260
7 1261
7 1262
7 1263
7 1264
7 1265
7 1266
7 1267
7 1268
7 1269
7 1270
7 1271
7 1272
7 1273
7 1274
7 1275
7 1276
7 1277
7 1278
7 1279
7 1280
7 1281
7 1282
7 1283
8 30
8 149
9 949
9 1771
10 350
10 456
10 501
10 754
10 922
10 1688
10 1689
10 1690
10 1691
10 1692
11 50
11 56
11 75
11 135
11 151
11 165
11 192
11 207
11 308
11 309
11 336
11 337
11 352
11 363
11 401
11 402
11 421
11 442
11 443
11 444
11 509
11 510
11 608
11 653
11 654
11 748
11 753
11 760
11 795
11 796
11 975
11 976
11 977
11 1060
11 1061
11 1842
11 1843
11 1844
11 1845
12 110
12 158
12 208
12 216
12 279
12 301
12 392
12 463
12 469
12 504
12 661
12 723
12 729
12 737
12 794
12 818
12 846
12 890
12 1204
12 1205
12 1206
12 1207
12 1208
12 1209
12 1210
12 1211
12 1212
13 14
13 243
13 268
13 275
13 299
13 434
13 463
13 494
13 498
13 512
13 520
13 562
13 563
13 630
13 632
13 774
13 775
13 777
13 865
13 866
13 1030
13 1031
13 1033
13 1035
13 1102
13 1103
13 1104
13 1105
13 1106
13 1107
13 1108
13 1109
14 299
14 301
14 333
14 395
14 434
14 463
14 498
14 562
14 563
14 632
14 633
14 774
14 775
14 776
14 777
14 1030
14 1031
14 1032
14 1033
14 1034
14 1035
14 1036
14 1037
14 1038
14 1937
14 1938
14 1939
14 1940
14 1941
14 1942
14 1943
14 1944
14 1945
14 1946
14 1947
14 1948
14 1949
14 1950
14 1951
14 1952
14 1953
15 188
15 208
15 260
15 287
15 338
15 511
15 655
15 656
15 797
15 1996
16 35
16 133
16 199
16 456
16 478
16 489
16 622
16 734
16 779
16 980
16 981
17 19
17 229
17 295
17 301
17 333
17 334
17 380
17 406
17 440
17 449
17 494
17 520
17 575
17 576
17 663
17 678
17 693
17 825
17 840
17 858
17 1290
17 1291
17 1292
18 141
18 279
18 286
18 414
18 482
18 501
18 582
18 655
18 671
18 1029
18 1407
18 1408
19 20
19 140
19 184
19 333
19 334
19 380
19 395
19 434
19 440
19 449
19 494
19 520
19 561
19 575
19 576
19 630
19 677
19 678
19 679
19 683
19 709
19 769
19 840
19 896
19 1021
19 1456
20 41
20 140
20 301
20 333
20 334
20 380
20 395
20 406
20 434
20 440
20 449
20 494
20 520
20 559
20 561
20 563
20 575
20 576
20 630
20 632
20 661
20 662
20 663
20 677
20 679
20 693
20 709
20 730
20 769
20 895
20 897
20 942
20 1179
20 1180
20 1181
20 1182
21 43
21 79
21 260
21 327
21 389
21 613
21 666
21 697
21 734
21 805
21 806
21 807
21 1100
22 396
22 482
22 490
22 706
22 974
22 1694
23 260
23 287
23 390
23 396
23 399
23 420
23 843
23 969
23 1070
23 1071
23 1072
24 110
24 348
24 617
24 726
24 758
24 823
24 1043
24 1309
25 779
25 880
26 49
26 121
26 186
26 240
26 273
26 315
26 328
26 367
26 423
26 427
26 440
26 557
26 603
26 764
26 955
26 1028
27 38
27 283
27 363
27 371
27 415
27 419
27 552
27 611
27 612
27 880
27 1548
27 1549
28 83
28 146
28 376
28 426
28 479
28 500
28 560
28 593
28 673
28 674
28 738
28 739
28 924
28 967
28 987
28 1434
28 1435
28 1436
28 1437
28 1438
28 1439
28 1440
29 64
29 69
29 167
29 240
29 273
29 338
29 363
29 375
29 387
29 388
29 417
29 468
29 528
29 599
29 610
29 612
29 624
29 667
29 714
29 715
29 737
29 752
29 804
29 824
29 898
29 923
29 986
29 1310
29 1311
29 1312
29 1313
29 1314
29 1315
29 1316
29 1317
30 54
30 96
30 208
30 288
30 297
30 316
30 350
30 352
30 374
30 410
30 411
30 457
30 466
30 504
30 507
30 508
30 514
30 540
30 543
30 544
30 605
30 649
30 650
30 658
30 800
30 959
30 1014
30 1038
30 1050
30 1051
30 1052
30 1053
30 1795
30 1796
30 1797
30 1798
30 1799
30 1800
30 1801
31 60
31 287
31 440
31 468
31 569
31 1049
31 1989
31 1990
32 49
32 103
32 186
32 195
32 315
32 328
32 333
32 344
32 367
32 422
32 423
32 424
32 460
32 461
32 493
32 557
32 629
32 766
32 768
33 196
33 333
33 334
33 395
33 406
33 434
33 440
33 449
33 494
33 549
33 559
33 561
33 661
33 677
33 683
33 707
33 920
33 1074
33 1075
34 79
34 259
34 260
34 286
34 327
34 371
34 380
34 389
34 420
34 484
34 491
34 556
34 689
34 696
34 746
34 754
34 1183
35 199
35 286
35 484
35 1622
36 124
36 238
36 240
36 295
36 469
36 610
36 611
36 612
36 737
36 986
36 1042
36 1858
36 1859
36 1860
37 64
37 78
37 95
37 114
37 139
37 238
37 268
37 275
37 281
37 282
37 284
37 285
37 294
37 302
37 304
37 305
37 306
37 312
37 317
37 318
37 330
37 332
37 347
37 351
37 357
37 364
37 391
37 393
37 425
37 432
37 451
37 456
37 462
37 479
37 496
37 533
37 536
37 588
37 589
37 590
37 591
37 592
37 701
37 702
37 703
37 704
37 724
37 762
37 810
37 811
37 914
37 915
37 916
37 917
37 919
37 935
37 1057
37 1142
37 1143
37 1144
37 1145
37 1146
37 1147
37 1148
37 1149
37 1150
37 1151
37 1152
37 1153
37 1154
37 1155
37 1156
37 1157
37 1158
37 1159
37 1160
37 1161
37 1162
37 1163
37 1164
37 1165
37 1166
37 1167
37 1168
37 1169
37 1170
37 1171
37 1172
37 1173
37 1174
37 1175
38 117
38 205
38 212
38 238
38 260
38 268
38 280
38 282
38 285
38 295
38 302
38 303
38 318
38 334
38 363
38 388
38 400
38 417
38 428
38 438
38 439
38 466
38 500
38 546
38 573
38 580
38 611
38 633
38 645
38 667
38 668
38 673
38 674
38 684
38 720
38 847
38 878
38 912
38 958
38 960
38 988
38 989
38 1027
38 1058
38 1411
38 1412
38 1413
38 1414
38 1415
38 1416
38 1417
38 1418
38 1419
38 1420
38 1421
38 1422
39 54
39 125
39 133
39 208
39 288
39 297
39 352
39 353
39 363
39 373
39 374
39 376
39 387
39 417
39 437
39 457
39 466
39 504
39 507
39 508
39 543
39 544
39 643
39 648
39 658
39 803
39 988
39 1864
39 1865
39 1866
39 1867
39 1868
39 1869
39 1870
40 79
40 179
40 259
40 286
40 396
40 415
40 478
40 801
40 812
40 832
40 1192
40 1193
40 1194
40 1195
41 162
41 380
41 515
41 931
41 1330
41 1331
41 1332
42 67
42 72
42 191
42 197
42 215
42 244
42 246
42 248
42 253
42 268
42 272
42 274
42 292
42 299
42 307
42 323
42 326
42 335
42 339
42 345
42 346
42 356
42 360
42 361
42 381
42 383
42 397
42 436
42 452
42 464
42 467
42 474
42 475
42 476
42 480
42 495
42 498
42 499
42 505
42 513
42 518
42 530
42 531
42 532
42 537
42 538
42 567
42 587
42 592
42 600
42 659
42 698
42 699
42 907
42 908
42 909
42 910
42 1663
42 1664
43 260
43 697
43 805
43 806
43 807
43 1099
44 64
44 335
44 814
44 815
44 901
44 925
44 998
44 1216
44 1217
44 1218
44 1219
45 73
45 247
45 259
45 260
45 286
45 293
45 327
45 455
45 491
45 1093
45 1094
45 1095
45 1096
45 1097
46 67
46 86
46 169
46 181
46 197
46 208
46 215
46 238
46 240
46 241
46 248
46 288
46 307
46 335
46 338
46 352
46 353
46 354
46 372
46 373
46 374
46 397
46 398
46 399
46 438
46 439
46 467
46 503
46 504
46 505
46 567
46 639
46 640
46 641
46 642
46 643
46 644
46 787
46 788
46 789
46 790
46 791
46 794
46 1044
46 1045
46 1978
46 1979
46 1980
46 1981
46 1982
46 1983
46 1984
46 1985
47 188
47 208
47 386
47 438
47 455
47 485
47 503
47 542
47 593
47 656
47 912
47 913
47 976
47 1669
47 1670
47 1671
47 1672
47 1673
47 1674
47 1675
47 1676
47 1677
47 1678
47 1679
47 1680
47 1681
47 1682
47 1683
47 1684
47 1685
48 50
48 75
48 151
48 192
48 207
48 309
48 336
48 337
48 421
48 430
48 442
48 444
48 453
48 626
48 721
48 753
48 759
48 760
48 761
48 944
48 945
48 946
48 1059
48 1766
48 1767
48 1768
48 1769
49 82
49 103
49 186
49 195
49 315
49 328
49 344
49 367
49 422
49 423
49 460
49 461
49 493
49 603
49 629
49 765
49 768
50 56
50 75
50 135
50 151
50 165
50 207
50 308
50 309
50 336
50 337
50 401
50 402
50 442
50 443
50 444
50 509
50 510
50 653
50 654
50 795
50 796
50 1059
50 1060
50 1061
51 171
51 208
51 258
51 282
51 313
51 330
51 333
51 376
51 388
51 395
51 407
51 428
51 430
51 473
51 505
51 527
51 549
51 566
51 633
51 689
51 887
51 888
51 889
51 890
51 926
51 1017
51 1583
51 1584
51 1585
51 1586
51 1587
51 1588
51 1589
51 1590
51 1591
51 1592
51 1593
51 1594
51 1595
51 1596
51 1597
51 1598
51 1599
51 1600
51 1601
51 1602
51 1603
52 129
52 208
52 220
52 241
52 248
52 289
52 307
52 323
52 325
52 335
52 339
52 352
52 355
52 436
52 438
52 448
52 469
52 475
52 526
52 528
52 547
52 571
52 580
52 584
52 587
52 599
52 638
52 639
52 810
52 853
52 871
52 886
52 954
52 1079
52 1080
52 1081
52 1082
53 122
53 162
53 555
53 755
53 756
53 757
54 96
54 189
54 218
54 221
54 241
54 249
54 288
54 297
54 374
54 457
54 466
54 507
54 508
54 543
54 648
54 1047
54 1846
54 1847
55 125
55 283
55 371
55 500
55 501
55 502
55 1042
55 1957
55 1958
55 1959
56 75
56 135
56 151
56 165
56 308
56 309
56 336
56 337
56 402
56 421
56 442
56 443
56 444
56 509
56 510
56 608
56 653
56 654
56 795
56 1578
57 133
57 348
57 377
57 414
57 489
57 515
57 597
57 711
58 75
58 412
58 716
58 1772
58 1773
58 1774
58 1775
59 71
59 79
59 97
59 237
59 260
59 283
59 287
59 365
59 371
59 377
59 390
59 420
59 491
59 502
59 556
59 625
59 758
60 155
60 208
60 259
60 353
60 468
60 636
60 637
60 785
60 786
60 1039
60 1040
60 1041
60 1049
60 1954
60 1955
60 1956
61 482
61 552
61 604
61 1551
61 1552
61 1553
61 1554
61 1555
62 156
62 175
62 214
62 226
62 299
62 310
62 339
62 340
62 356
62 413
62 441
62 499
62 572
62 606
62 607
62 660
62 731
62 732
62 733
62 776
62 972
62 973
62 1015
62 1837
62 1838
62 1839
62 1840
62 1841
63 222
63 238
63 268
63 281
63 284
63 302
63 318
63 326
63 334
63 359
63 364
63 394
63 398
63 426
63 428
63 429
63 478
63 482
63 535
63 560
63 593
63 594
63 597
63 727
63 745
63 775
63 792
63 924
63 925
63 926
63 927
63 928
63 929
63 930
63 931
63 961
63 962
63 963
63 1011
63 1695
63 1696
63 1697
63 1698
63 1699
63 1700
63 1701
63 1702
63 1703
63 1704
63 1705
63 1706
63 1707
63 1708
63 1709
63 1710
63 1711
63 1712
63 1713
63 1714
63 1715
63 1716
63 1717
63 1718
63 1719
63 1720
63 1721
63 1722
63 1723
63 1724
64 78
64 119
64 139
64 145
64 192
64 238
64 241
64 254
64 268
64 274
64 275
64 281
64 282
64 284
64 285
64 294
64 302
64 303
64 304
64 305
64 306
64 316
64 317
64 318
64 330
64 331
64 332
64 347
64 351
64 369
64 370
64 377
64 391
64 392
64 393
64 394
64 400
64 425
64 426
64 427
64 428
64 429
64 430
64 431
64 432
64 433
64 441
64 462
64 496
64 497
64 631
64 651
64 652
64 771
64 772
64 773
64 793
64 1026
64 1027
64 1028
64 1926
64 1927
64 1928
64 1929
64 1930
64 1931
64 1932
64 1933
64 1934
64 1935
64 1936
65 273
65 350
65 545
65 808
65 1073
66 313
66 338
66 447
66 517
66 546
66 550
66 640
66 665
66 668
66 674
66 684
66 716
66 720
66 817
66 888
66 918
66 984
66 1284
66 1285
66 1286
66 1287
66 1288
66 1289
67 72
67 163
67 169
67 181
67 197
67 215
67 241
67 244
67 246
67 248
67 253
67 268
67 274
67 307
67 335
67 346
67 360
67 361
67 369
67 383
67 397
67 429
67 467
67 472
67 480
67 523
67 537
67 567
67 600
67 609
67 642
67 699
67 771
67 908
67 909
67 1046
67 1048
67 1365
67 1366
67 1367
67 1368
67 1369
67 1370
67 1371
67 1372
67 1373
67 1374
67 1375
67 1376
67 1377
68 458
68 722
68 723
68 724
68 725
68 726
68 1791
68 1792
68 1793
69 86
69 273
69 280
69 338
69 354
69 387
69 417
69 719
69 720
69 1025
69 1783
69 1784
69 1785
69 1786
69 1787
69 1788
69 1789
69 1790
70 81
70 283
70 617
70 812
70 835
70 1077
70 1078
71 74
71 84
71 97
71 265
71 353
71 387
71 427
71 447
71 809
71 819
71 820
71 821
71 822
71 1127
71 1128
71 1129
71 1130
71 1131
71 1132
71 1133
72 163
72 181
72 208
72 215
72 238
72 244
72 246
72 248
72 253
72 257
72 272
72 288
72 292
72 307
72 326
72 335
72 346
72 352
72 360
72 361
72 372
72 381
72 383
72 397
72 426
72 467
72 480
72 537
72 538
72 539
72 600
72 602
72 617
72 698
72 699
72 787
72 790
72 855
72 876
72 899
72 910
72 950
72 952
72 1427
72 1428
72 1429
72 1430
72 1431
72 1432
72 1433
73 79
73 260
73 287
73 327
73 365
73 389
73 420
73 491
73 1018
74 190
74 283
74 386
74 623
75 151
75 165
75 207
75 280
75 309
75 336
75 337
75 363
75 399
75 401
75 402
75 421
75 442
75 443
75 444
75 509
75 548
75 608
75 653
75 759
75 881
75 945
75 1577
76 286
76 396
76 414
76 455
76 657
76 1177
77 426
77 470
77 552
77 1067
77 1068
77 1069
78 84
78 92
78 95
78 113
78 114
78 119
78 139
78 145
78 166
78 184
78 192
78 238
78 252
78 268
78 274
78 275
78 281
78 282
78 284
78 285
78 294
78 302
78 303
78 304
78 305
78 306
78 312
78 317
78 318
78 330
78 331
78 332
78 347
78 357
78 364
78 369
78 370
78 381
78 391
78 392
78 393
78 408
78 409
78 425
78 429
78 431
78 432
78 433
78 476
78 479
78 486
78 496
78 497
78 533
78 536
78 588
78 589
78 590
78 591
78 594
78 681
78 701
78 762
78 827
78 929
79 81
79 83
79 92
79 99
79 100
79 113
79 115
79 123
79 162
79 179
79 190
79 239
79 256
79 260
79 269
79 279
79 283
79 327
79 342
79 666
79 687
79 696
79 903
79 904
79 906
80 115
80 210
80 350
80 454
80 690
80 893
80 1196
81 186
81 696
81 697
81 903
81 904
81 1654
81 1655
81 1656
82 103
82 180
82 186
82 194
82 195
82 315
82 328
82 344
82 367
82 423
82 424
82 460
82 461
82 477
82 557
82 603
82 765
82 767
82 1221
83 208
83 241
83 259
83 376
83 400
83 420
83 426
83 483
83 484
83 503
83 511
83 542
83 560
83 609
83 735
83 736
83 982
83 1848
83 1849
83 1850
83 1851
83 1852
84 92
84 97
84 113
84 119
84 145
84 166
84 192
84 238
84 265
84 268
84 275
84 282
84 284
84 285
84 302
84 303
84 304
84 305
84 306
84 316
84 317
84 318
84 331
84 332
84 347
84 359
84 364
84 370
84 381
84 391
84 392
84 393
84 398
84 407
84 408
84 416
84 428
84 429
84 431
84 446
84 473
84 476
84 497
84 517
84 522
84 533
84 540
84 566
84 589
84 620
84 691
84 703
84 736
84 739
84 845
84 1016
84 1459
84 1460
84 1461
84 1462
84 1463
85 109
85 200
85 201
85 595
85 675
85 780
85 781
85 782
85 836
86 90
86 125
86 157
86 159
86 216
86 238
86 251
86 255
86 265
86 274
86 284
86 285
86 294
86 303
86 304
86 305
86 331
86 343
86 364
86 369
86 385
86 463
86 486
86 614
86 615
86 616
86 741
86 742
86 743
86 744
86 996
86 997
86 998
86 999
86 1000
86 1001
86 1002
86 1003
86 1004
86 1878
86 1879
86 1880
86 1881
86 1882
86 1883
86 1884
86 1885
86 1886
86 1887
86 1888
86 1889
86 1890
86 1891
86 1892
86 1893
86 1894
86 1895
86 1896
87 133
87 695
87 1571
88 120
88 348
88 465
89 813
90 241
90 387
90 528
90 547
90 599
90 610
90 640
90 788
90 814
90 949
90 1134
90 1135
90 1136
90 1137
90 1138
90 1139
90 1140
90 1141
91 254
91 375
91 400
91 568
91 637
91 638
91 640
91 784
91 878
91 1565
91 1566
91 1567
91 1568
91 1569
91 1570
92 237
92 238
92 252
92 259
92 260
92 284
92 286
92 317
92 319
92 330
92 331
92 347
92 357
92 365
92 381
92 386
92 394
92 396
92 407
92 415
92 416
92 446
92 470
92 473
92 484
92 487
92 488
92 491
92 521
92 562
92 565
92 582
92 604
92 613
92 666
92 687
92 770
92 832
92 833
92 834
92 835
92 881
92 922
92 1003
92 1006
92 1354
92 1355
92 1356
92 1357
92 1358
92 1359
92 1360
92 1361
92 1362
92 1363
92 1364
93 141
93 208
93 280
93 295
93 338
93 380
93 411
93 438
93 454
93 570
93 745
93 1190
93 1191
94 328
94 447
94 797
94 936
94 1347
94 1348
94 1349
94 1350
94 1351
94 1352
95 268
95 281
95 282
95 284
95 285
95 302
95 317
95 332
95 359
95 393
95 425
95 429
95 431
95 479
95 496
95 596
95 744
95 771
95 773
95 935
95 936
95 937
95 938
95 1026
95 1728
95 1729
95 1730
95 1731
95 1732
95 1733
95 1734
95 1735
95 1736
95 1737
95 1738
95 1739
95 1740
95 1741
95 1742
95 1743
95 1744
95 1745
95 1746
95 1747
95 1748
95 1749
95 1750
95 1751
95 1752
95 1753
95 1754
95 1755
95 1756
95 1757
95 1758
96 249
96 288
96 297
96 374
96 376
96 507
96 508
96 569
96 648
96 649
96 650
96 1050
96 1051
96 1052
96 1053
96 1054
97 265
97 454
97 819
97 820
97 821
97 822
97 841
97 842
97 1301
97 1302
97 1303
97 1304
97 1305
97 1306
97 1307
97 1308
98 783
98 784
99 100
99 259
99 283
99 455
99 487
99 490
99 502
100 259
100 283
100 455
100 487
100 490
100 502
101 230
101 260
101 287
101 327
101 365
101 371
101 377
101 389
101 390
101 419
101 420
101 553
101 556
101 625
102 129
102 182
102 229
102 289
102 325
102 355
102 448
102 525
102 526
102 571
102 646
102 831
103 180
103 194
103 195
103 344
103 367
103 422
103 423
103 424
103 492
103 493
103 627
103 628
103 728
103 1020
103 1831
104 164
104 399
104 954
104 1780
104 1781
105 289
105 376
105 516
105 517
105 658
105 802
105 803
105 1064
105 1065
105 1997
105 1998
106 148
106 458
106 725
107 283
107 286
107 350
107 386
107 415
107 455
107 456
107 487
107 490
107 502
107 657
107 1650
107 1651
107 1652
108 259
108 430
108 711
108 746
108 946
108 1763
108 1764
108 1765
109 200
109 201
109 595
109 675
109 780
109 781
109 782
109 836
109 933
109 934
109 1441
109 1442
110 265
110 1043
110 1962
110 1963
110 1964
111 124
111 146
111 208
111 242
111 288
111 439
111 511
111 568
111 645
111 792
111 1046
111 1047
111 1048
112 260
112 287
112 327
112 371
112 377
112 389
112 390
112 420
112 553
113 119
113 145
113 166
113 238
113 274
113 275
113 281
113 282
113 284
113 294
113 302
113 303
113 304
113 305
113 306
113 317
113 318
113 330
113 331
113 332
113 334
113 347
113 351
113 357
113 359
113 364
113 369
113 370
113 381
113 392
113 393
113 398
113 407
113 408
113 409
113 425
113 431
113 432
113 433
113 446
113 451
113 463
113 476
113 486
113 521
113 522
113 540
113 566
113 594
113 681
114 139
114 238
114 248
114 268
114 274
114 275
114 281
114 282
114 284
114 285
114 294
114 302
114 303
114 304
114 305
114 306
114 312
114 314
114 317
114 318
114 330
114 332
114 334
114 347
114 351
114 357
114 369
114 370
114 381
114 391
114 392
114 393
114 399
114 407
114 408
114 409
114 425
114 428
114 432
114 433
114 451
114 469
114 496
114 527
114 536
114 588
114 591
114 594
114 702
114 811
114 827
114 1098
115 210
115 240
115 259
115 286
115 288
115 295
115 363
115 462
115 484
115 684
115 783
115 849
115 850
115 891
115 892
115 968
115 1473
115 1474
115 1475
116 126
116 193
116 204
116 241
116 273
116 299
116 307
116 310
116 323
116 339
116 352
116 356
116 513
116 564
116 583
116 584
116 635
116 692
116 1451
116 1452
117 280
117 375
117 386
117 489
118 582
118 875
118 1550
119 145
119 166
119 192
119 209
119 238
119 268
119 274
119 275
119 281
119 282
119 284
119 285
119 294
119 302
119 303
119 304
119 305
119 306
119 317
119 318
119 331
119 332
119 347
119 351
119 357
119 359
119 369
119 370
119 381
119 391
119 392
119 407
119 408
119 409
119 429
119 431
119 433
119 446
119 451
119 463
119 486
119 497
119 521
119 522
119 533
119 590
119 691
119 704
120 465
121 395
121 559
121 707
121 1425
122 162
122 554
122 555
122 624
122 755
122 756
122 757
123 283
123 373
123 391
123 456
123 469
123 876
123 877
123 1556
123 1557
123 1558
123 1559
123 1560
123 1561
123 1562
123 1563
123 1564
124 418
124 543
124 645
124 719
124 785
124 990
124 1040
124 1657
124 1658
124 1659
124 1660
125 614
125 615
125 616
125 741
125 742
125 744
125 905
125 996
125 997
125 999
125 1000
125 1002
125 1004
125 1380
125 1381
125 1382
125 1383
125 1384
125 1385
125 1386
125 1387
125 1388
125 1389
125 1390
125 1391
125 1392
125 1393
125 1394
125 1395
125 1396
125 1397
125 1398
125 1399
125 1400
125 1401
125 1402
125 1403
125 1404
125 1405
125 1406
126 191
126 193
126 233
126 241
126 248
126 299
126 307
126 310
126 323
126 356
126 377
126 435
126 436
126 452
126 464
126 471
126 475
126 499
126 530
126 572
126 583
126 585
126 586
126 676
126 860
126 862
126 1443
126 1444
127 273
127 418
127 550
127 551
127 621
127 639
127 642
128 182
128 241
128 248
128 307
128 345
128 354
128 467
128 911
128 1665
128 1666
128 1667
128 1668
129 191
129 220
129 227
129 229
129 257
129 325
129 355
129 406
129 436
129 448
129 571
129 574
129 581
129 672
129 705
129 1346
130 173
130 270
130 430
130 524
130 525
130 577
130 838
130 863
130 1036
130 1321
131 148
131 609
131 786
132 400
132 620
132 631
132 727
132 770
132 964
132 965
132 1056
132 1822
132 1823
132 1824
132 1825
132 1826
132 1827
132 1828
133 149
133 216
133 515
133 636
134 388
134 694
134 1581
134 1582
135 207
135 309
135 336
135 337
135 401
135 402
135 421
135 442
135 510
135 753
135 796
135 1918
136 144
136 172
136 193
136 233
136 248
136 345
136 471
136 474
136 564
136 579
136 584
136 585
136 634
136 844
136 861
137 171
137 232
137 266
137 481
137 541
137 598
137 713
137 722
137 877
138 901
138 1645
138 1646
138 1647
138 1648
138 1649
139 238
139 268
139 275
139 281
139 282
139 284
139 285
139 294
139 302
139 304
139 305
139 306
139 317
139 318
139 330
139 332
139 351
139 370
139 391
139 479
139 496
139 533
139 536
139 588
139 589
139 590
139 591
139 592
139 701
139 702
139 703
139 704
139 914
139 915
139 916
139 917
139 918
139 919
139 937
139 1686
139 1687
140 333
140 334
140 434
140 440
140 562
140 709
140 942
140 1022
140 1761
140 1762
141 216
141 375
141 570
141 1907
142 747
142 813
142 1213
142 1214
142 1215
143 254
143 296
143 441
143 773
143 921
143 938
143 1616
143 1617
143 1618
143 1619
143 1620
143 1621
144 193
144 233
144 299
144 345
144 436
144 474
144 495
144 524
144 531
144 532
144 579
144 635
144 717
144 778
144 860
144 861
144 862
144 863
144 864
145 166
145 192
145 275
145 281
145 282
145 285
145 306
145 317
145 330
145 332
145 347
145 351
145 357
145 359
145 364
145 369
145 370
145 381
145 392
145 393
145 398
145 407
145 408
145 409
145 416
145 425
145 428
145 431
145 432
145 433
145 446
145 473
145 476
145 497
145 522
145 596
145 664
145 1201
146 208
146 439
146 739
146 990
147 229
147 241
147 268
147 289
147 292
147 321
147 325
147 355
147 406
147 475
147 581
147 686
147 867
147 868
147 869
147 870
147 871
147 872
147 873
147 874
147 1545
148 500
148 652
148 738
148 793
148 941
148 1760
149 348
149 396
149 414
149 604
149 956
149 957
150 280
150 348
150 353
150 373
150 387
150 388
150 417
150 459
150 514
150 636
150 752
150 1015
150 1016
150 1908
150 1909
150 1910
151 165
151 207
151 309
151 336
151 337
151 401
151 402
151 421
151 443
151 444
151 626
151 759
151 760
151 761
152 229
152 368
152 447
152 930
152 1542
153 458
153 488
153 1897
153 1898
154 160
154 273
154 418
154 550
154 551
154 621
155 468
155 710
155 1039
155 1041
156 175
156 182
156 214
156 226
156 262
156 299
156 310
156 323
156 339
156 340
156 356
156 441
156 499
156 606
156 607
156 660
156 731
156 732
156 973
157 238
157 240
157 241
157 273
157 280
157 295
157 297
157 301
157 373
157 387
157 388
157 410
157 411
157 437
157 459
157 472
157 485
157 514
157 523
157 662
157 665
157 667
157 829
157 830
157 845
157 1186
157 1187
157 1188
158 273
158 295
158 368
158 411
158 485
158 1222
158 1223
158 1224
158 1225
158 1226
158 1227
159 353
159 387
159 547
159 610
159 719
159 951
159 1779
160 208
160 273
160 279
160 280
160 338
160 418
160 456
160 485
160 504
160 550
160 612
160 738
160 987
160 1861
160 1862
160 1863
161 618
161 706
162 174
162 286
162 449
162 554
162 555
162 565
162 694
162 1633
162 1634
163 191
163 215
163 226
163 241
163 246
163 248
163 257
163 272
163 292
163 307
163 335
163 340
163 346
163 354
163 360
163 361
163 372
163 375
163 411
163 467
163 513
163 538
163 560
163 600
163 601
163 602
163 641
163 644
163 718
163 952
163 953
164 329
164 368
164 399
164 770
164 1023
164 1024
165 309
165 336
165 337
165 401
165 442
165 443
165 509
165 510
165 608
165 1202
166 238
166 275
166 281
166 282
166 284
166 285
166 294
166 302
166 303
166 304
166 305
166 306
166 317
166 318
166 330
166 331
166 332
166 347
166 351
166 357
166 369
166 392
166 407
166 408
166 409
166 446
166 451
166 497
166 522
166 681
166 736
166 927
166 1458
167 208
167 363
167 468
167 599
167 637
167 714
167 715
167 1770
168 682
168 823
168 1178
169 354
169 467
169 513
169 567
169 601
169 644
169 718
169 900
169 1636
169 1637
169 1638
169 1639
169 1640
169 1641
169 1642
169 1643
169 1644
170 283
170 365
170 371
170 708
170 939
170 940
170 1759
171 232
171 266
171 291
171 481
171 541
171 598
171 713
171 947
171 948
172 471
172 828
172 844
172 885
172 1335
172 1336
172 1337
173 398
173 574
173 685
173 837
173 838
173 1446
173 1447
173 1448
173 1449
174 554
174 755
174 756
174 757
175 226
175 340
175 606
176 240
176 295
176 338
176 353
176 375
176 454
176 468
176 791
176 1572
176 1573
176 1574
176 1575
176 1576
177 182
177 229
177 271
177 289
177 325
177 341
177 355
177 406
177 448
177 474
177 525
177 526
177 571
177 882
177 883
177 884
177 885
177 886
177 1579
177 1580
178 188
178 439
178 479
178 1778
179 259
179 286
179 386
179 415
179 502
179 746
179 801
179 1006
180 195
180 315
180 328
180 460
180 461
180 558
180 627
180 628
180 728
181 191
181 197
181 208
181 244
181 246
181 292
181 360
181 361
181 372
181 383
181 539
181 601
181 602
181 1661
181 1662
182 226
182 289
182 299
182 307
182 310
182 323
182 339
182 356
182 676
182 1450
183 452
183 532
183 774
183 854
183 856
183 859
183 889
183 1322
183 1323
183 1324
183 1325
183 1326
183 1327
183 1328
183 1329
184 240
184 260
184 294
184 303
184 331
184 380
184 399
184 400
184 411
184 440
184 449
184 486
184 514
184 693
184 729
184 772
184 895
184 896
184 897
184 957
184 1623
184 1624
184 1625
184 1626
185 279
185 287
185 390
185 695
186 280
186 315
186 328
186 417
186 489
186 500
186 849
187 289
187 506
187 516
187 646
187 1986
187 1987
187 1988
188 208
188 426
188 439
188 503
188 593
188 656
188 735
188 789
188 913
188 982
188 1353
189 263
189 297
189 373
189 374
189 376
189 410
189 437
189 508
189 648
189 852
189 1426
190 208
190 240
190 312
190 365
190 386
190 415
190 426
190 839
190 1453
190 1454
190 1455
191 204
191 241
191 244
191 246
191 253
191 257
191 268
191 272
191 274
191 292
191 326
191 346
191 361
191 372
191 383
191 464
191 537
191 641
191 717
191 950
191 1776
191 1777
192 274
192 275
192 281
192 282
192 285
192 303
192 304
192 305
192 306
192 317
192 330
192 331
192 332
192 347
192 351
192 357
192 359
192 370
192 393
192 408
192 409
192 425
192 431
192 432
192 433
192 691
193 204
193 233
193 307
193 435
193 436
193 564
193 583
193 584
193 585
193 692
194 315
194 328
194 344
194 367
194 424
194 477
194 492
194 558
195 315
195 344
195 367
195 423
195 424
195 477
195 492
195 767
196 333
196 334
196 395
196 494
196 559
196 561
196 630
196 769
196 1021
196 1022
196 1925
197 241
197 244
197 246
197 248
197 272
197 292
197 330
197 335
197 346
197 360
197 361
197 372
197 383
197 397
197 480
197 500
197 539
197 569
197 899
197 966
197 1635
198 468
198 1802
199 622
199 700
199 734
199 979
199 980
199 981
200 201
200 268
200 275
200 281
200 294
200 314
200 333
200 334
200 394
200 395
200 535
200 549
200 595
200 707
200 932
200 933
200 934
200 1725
200 1726
200 1727
201 334
201 780
201 781
201 782
201 1960
201 1961
202 241
202 273
202 280
202 363
202 417
202 716
202 816
202 817
203 520
203 575
203 576
203 663
203 825
203 1318
204 299
204 310
204 323
204 339
204 471
204 495
204 518
204 530
204 531
204 579
204 583
204 692
205 1871
205 1872
205 1873
205 1874
205 1875
206 224
206 275
206 281
206 294
206 326
206 359
206 364
206 373
206 394
206 398
206 416
206 429
206 452
206 476
206 506
206 532
206 535
206 619
206 669
206 670
206 749
206 751
206 1009
206 1423
206 1424
207 309
207 337
207 401
207 402
207 626
208 228
208 251
208 256
208 261
208 278
208 298
208 313
208 385
209 294
209 324
209 535
209 664
209 670
209 740
209 802
209 826
209 992
209 993
209 994
209 1320
210 462
210 690
210 783
210 784
210 891
210 892
210 1604
211 528
211 893
211 1606
211 1607
211 1608
211 1609
211 1610
211 1611
211 1612
211 1613
211 1614
211 1615
212 960
212 1806
213 368
213 375
213 411
213 454
213 643
213 729
213 730
213 788
213 966
213 967
213 1832
213 1833
213 1834
213 1835
213 1836
214 299
214 310
214 323
214 339
214 356
214 441
214 531
214 606
214 607
214 660
214 972
215 244
215 246
215 248
215 257
215 272
215 274
215 292
215 326
215 335
215 346
215 360
215 361
215 372
215 383
215 397
215 411
215 538
215 568
215 638
215 698
216 240
216 241
216 279
216 295
216 354
216 438
216 485
216 542
216 582
216 804
216 818
216 941
216 1297
216 1298
216 1299
216 1300
217 549
217 920
218 295
218 297
218 301
218 348
218 350
218 380
218 417
218 437
218 454
218 515
218 542
218 643
218 688
218 695
218 1547
219 268
219 284
219 285
219 302
219 303
219 304
219 305
219 306
219 318
219 351
219 566
219 638
219 785
219 786
219 792
219 1965
219 1966
219 1967
219 1968
219 1969
219 1970
219 1971
219 1972
219 1973
219 1974
219 1975
219 1976
219 1977
220 227
220 289
220 325
220 355
220 448
220 526
220 672
220 676
221 288
221 290
221 297
221 374
221 376
221 437
221 457
221 466
221 507
221 544
221 605
221 658
221 680
222 961
222 962
222 963
222 1810
222 1811
222 1812
222 1813
222 1814
222 1815
222 1816
222 1817
222 1818
222 1819
222 1820
222 1821
223 285
223 400
223 548
223 748
223 1007
223 1008
223 1899
223 1900
223 1901
223 1902
223 1903
224 275
224 281
224 326
224 364
224 394
224 398
224 416
224 506
224 619
224 749
224 750
224 751
224 1009
224 1010
224 1011
224 1012
224 1013
224 1014
224 1904
224 1905
224 1906
225 779
226 253
226 262
226 299
226 310
226 339
226 340
226 356
226 518
226 519
226 534
226 572
226 659
226 660
227 355
227 471
227 585
227 672
228 241
228 295
228 352
228 353
228 368
228 459
228 655
228 1605
229 289
229 325
229 355
230 260
230 287
230 327
230 365
230 371
230 377
230 389
230 390
230 420
230 553
230 556
230 625
231 299
231 345
231 356
231 435
231 495
231 518
231 531
231 586
231 659
231 864
231 1176
232 266
232 291
232 481
232 541
232 598
232 712
232 713
232 947
232 948
233 241
233 248
233 307
233 310
233 340
233 345
233 346
233 356
233 435
233 436
233 495
233 560
233 568
233 635
233 1025
234 478
234 1076
235 722
235 723
235 724
235 1083
235 1084
235 1085
235 1086
235 1087
235 1088
235 1089
235 1090
235 1091
236 259
236 645
236 989
237 365
237 371
237 487
237 978
238 258
238 261
238 314
238 343
238 647
239 259
239 296
239 400
239 441
239 651
239 652
239 793
239 794
239 1055
239 1056
239 1057
239 1058
239 1992
239 1993
239 1994
239 1995
240 261
240 298
240 311
240 319
240 466
241 242
241 263
242 354
242 1999
243 301
243 333
243 434
243 449
243 563
243 578
243 632
243 777
243 1032
243 1037
243 1203
244 246
244 248
244 253
244 272
244 274
244 292
244 326
244 346
244 361
244 372
244 383
244 397
244 480
244 539
244 602
245 390
245 547
245 1829
245 1830
246 253
246 272
246 292
246 326
246 346
246 360
246 361
246 383
246 397
246 480
246 539
247 287
247 327
247 389
247 553
247 556
247 625
248 258
248 519
248 534
249 288
249 297
249 374
249 376
249 457
249 466
249 507
249 508
249 544
249 580
250 301
250 380
250 395
250 406
250 559
250 679
250 686
250 879
251 338
251 354
251 384
251 388
251 665
251 829
251 830
251 1338
252 282
252 351
252 357
252 359
252 394
252 409
252 416
252 433
252 446
252 473
252 521
252 562
252 596
252 833
252 834
252 1333
252 1334
253 272
253 274
253 326
253 335
253 346
253 360
253 474
253 530
253 538
254 306
254 387
254 388
254 631
254 772
254 983
254 984
254 1853
254 1854
254 1855
255 288
255 290
255 295
255 368
255 374
255 437
255 438
255 457
255 485
255 542
255 605
255 649
255 650
255 680
256 283
256 386
256 415
256 687
256 1546
257 272
257 464
257 953
258 314
258 430
258 549
258 620
258 1017
258 1911
258 1912
258 1913
258 1914
258 1915
258 1916
258 1917
259 269
260 293
261 280
261 338
261 353
261 368
261 427
261 459
261 664
261 670
261 688
261 816
261 826
262 273
262 288
262 310
262 323
262 339
262 345
262 472
262 495
262 634
263 338
263 354
263 472
263 523
263 911
263 1293
263 1294
263 1295
263 1296
264 274
264 301
264 394
264 427
264 430
264 437
264 505
264 517
264 574
264 620
264 669
264 705
265 504
265 841
265 842
265 1457
266 481
266 541
266 598
266 712
267 279
267 458
267 488
267 1782
269 368
269 597
269 682
270 325
270 516
270 524
270 525
271 289
271 323
271 325
271 355
271 475
271 526
271 530
271 587
271 848
271 883
272 307
274 358
275 316
276 301
276 511
276 1184
276 1185
277 484
277 613
277 850
277 1409
277 1410
278 288
278 742
278 1630
278 1631
278 1632
280 319
284 343
288 298
289 341
290 544
290 605
290 649
290 650
290 680
291 481
291 712
292 314
292 316
292 321
292 851
293 1018
295 311
295 647
296 441
296 609
296 651
296 1807
296 1808
296 1809
297 298
297 437
298 374
298 375
298 469
298 513
298 514
298 569
300 985
300 1856
300 1857
301 404
303 358
306 762
308 336
308 402
308 421
308 443
308 444
308 654
308 1005
310 519
310 534
311 375
311 454
311 514
311 688
311 1200
312 1339
312 1340
312 1341
312 1342
312 1343
312 1344
312 1345
313 964
313 1197
313 1198
313 1199
314 326
314 373
314 439
314 799
314 1054
314 1319
316 373
316 379
316 416
316 540
316 887
316 1378
316 1379
319 368
319 900
319 1101
320 488
320 1445
321 581
321 867
321 868
321 872
322 328
324 740
324 991
324 992
324 993
324 994
324 1876
324 1877
325 341
329 399
329 1023
329 1024
335 519
337 453
340 607
340 731
340 732
341 882
341 894
342 906
343 385
343 451
343 614
343 615
343 616
343 741
343 743
343 905
349 487
349 763
358 359
358 619
358 631
358 705
358 798
358 1693
362 740
362 991
362 1803
362 1804
362 1805
366 1019
366 1919
366 1920
366 1921
378 577
378 831
379 540
379 959
382 943
384 412
384 450
384 902
384 1653
385 614
385 615
385 616
385 743
385 958
385 1794
403 798
403 799
403 1019
403 1062
403 1063
404 578
404 857
410 803
412 751
412 970
412 971
413 923
419 552
445 490
450 902
453 527
453 580
453 865
453 866
462 529
462 1092
470 1124
470 1125
470 1126
483 1189
498 1464
498 1465
511 647
512 517
512 798
512 799
512 1062
512 1063
519 1220
573 750
622 700
647 1991
944 1066
